/* Função Objetivo */
max: 4 vi_0 + 5 vi_6
     + 6 v0_1 + 7 v0_2 + 4 v0_5
     + 7 v1_2
     + 2 v2_3
     + 2 v5_3
     + 6 v6_7 + 8 v6_10
     + 7 v7_2 + 4 v7_5 + 2 v7_9
     + 4 v10_5 + 2 v10_9 + 7 v10_11
     + 2 v11_9;

/*Restrições*/
vi_0 + vi_6 = 1;
v0_1 + v0_2 + v0_5 <= 1;
v1_2 <= 1;
v2_3 <= 1;
v5_6 <= 1;
v6_7 + v6_10 <= 1;
v7_2 + v7_5 + v7_9 <= 1;
v10_5 + v10_9 + v10_11 <= 1;
v11_9 <= 1;
v3_f + v5_f + v9_f = 1;

vi_0 = v0_1 + v0_2 + v0_5;
v0_1 = v1_2;
v0_2 + v1_2 + v7_2 = v2_3;
v2_3 + v5_3 = v3_f;
v0_5 + v7_5 + v10_5 = v5_3 + v5_f;
vi_6 = v6_7 + v6_10;
v6_7 = v7_2 + v7_5 + v7_9;
v7_9 + v10_9 + v11_9 = v9_f;
v6_10 = v10_5 + v10_9 + v10_11;
v10_11 = v11_9;

/* Variáveis de Decisão */
/*vi_j - peso para chegar do vertice i ao vertice j*/
Bin vi_0, vi_6,
v0_1, v0_2, v0_5,
v1_2,
v2_3,
v3_f,
v5_3,v5_f,
v6_7, v6_10,
v7_2, v7_5, v7_9,
v9_f,
v10_5, v10_9, v10_11
v11_9;